NAME : cgl_33.10068.tour
COMMENT : Length = 10068
COMMENT : Found by LKH-3 [Keld Helsgaun] Fri Nov  8 19:20:29 2024
TYPE : TOUR
DIMENSION : 33
TOUR_SECTION
22
20
17
21
19
24
23
25
26
28
27
29
30
31
32
33
1
2
3
4
5
6
11
10
8
7
12
9
13
15
14
16
18
-1
EOF
